PROBLEM NAME: eil51_n8
KNAPSACK DATA TYPE: multiple strongly correlated
DIMENSION: 8
NUMBER OF ITEMS: 70
CAPACITY OF KNAPSACK: 18756
MIN SPEED: 0.1
MAX SPEED: 1
RENTING RATIO: 69.24
EDGE_WEIGHT_TYPE: CEIL_2D
NODE_COORD_SECTION	(INDEX, X, Y):
1	52	64
2	57	58
3	16	57
4	27	68
5	58	48
6	10	17
7	39	10
8	48	28
ITEMS SECTION	(INDEX, PROFIT, WEIGHT, ASSIGNED NODE NUMBER):
1	1179	979	4
2	1165	965	4
3	1128	928	4
4	1121	921	4
5	1115	915	4
6	1092	792	4
7	1086	786	4
8	1061	861	4
9	1048	848	4
10	1014	714	4
11	1014	814	3
12	1013	813	3
13	990	790	3
14	989	789	3
15	987	787	3
16	973	773	3
17	953	753	3
18	952	752	3
19	948	748	3
20	910	710	3
21	882	682	6
22	852	652	6
23	847	647	6
24	823	623	6
25	816	516	6
26	805	605	6
27	785	585	6
28	775	575	6
29	768	568	6
30	760	560	6
31	759	559	7
32	745	545	7
33	742	542	7
34	737	537	7
35	726	526	7
36	688	488	7
37	677	477	7
38	625	425	7
39	600	300	7
40	593	393	7
41	586	386	8
42	576	376	8
43	574	374	8
44	573	373	8
45	564	264	8
46	564	364	8
47	563	363	8
48	563	363	8
49	555	355	8
50	553	353	8
51	534	234	5
52	520	320	5
53	514	314	5
54	513	313	5
55	492	292	5
56	480	180	5
57	445	245	5
58	442	242	5
59	429	229	5
60	425	225	5
61	417	217	2
62	355	155	2
63	312	112	2
64	311	111	2
65	306	106	2
66	283	83	2
67	270	70	2
68	250	50	2
69	249	49	2
70	226	26	2
